p cnf 188 1080
1 -81 0
1 -82 0
81 -81 0
82 -82 0
17 -87 0
17 -88 0
87 -87 0
88 -88 0
33 -93 0
33 -94 0
93 -93 0
94 -94 0
49 -99 0
49 -100 0
99 -99 0
100 -100 0
65 -105 0
65 -106 0
105 -105 0
106 -106 0
2 -111 -81 0
-2 111 -81 0
2 111 -82 0
-2 -111 -82 0
18 -111 -87 0
-18 111 -87 0
18 111 -88 0
-18 -111 -88 0
34 -111 -93 0
-34 111 -93 0
34 111 -94 0
-34 -111 -94 0
50 -111 -99 0
-50 111 -99 0
50 111 -100 0
-50 -111 -100 0
66 -111 -105 0
-66 111 -105 0
66 111 -106 0
-66 -111 -106 0
3 -81 0
3 -82 0
81 -81 0
82 -82 0
19 -87 0
19 -88 0
87 -87 0
88 -88 0
35 -93 0
35 -94 0
93 -93 0
94 -94 0
51 -99 0
51 -100 0
99 -99 0
100 -100 0
67 -105 0
67 -106 0
105 -105 0
106 -106 0
4 -112 -81 0
-4 112 -81 0
4 112 -82 0
-4 -112 -82 0
20 -112 -87 0
-20 112 -87 0
20 112 -88 0
-20 -112 -88 0
36 -112 -93 0
-36 112 -93 0
36 112 -94 0
-36 -112 -94 0
52 -112 -99 0
-52 112 -99 0
52 112 -100 0
-52 -112 -100 0
68 -112 -105 0
-68 112 -105 0
68 112 -106 0
-68 -112 -106 0
5 -81 0
5 -82 0
81 -81 0
82 -82 0
21 -87 0
21 -88 0
87 -87 0
88 -88 0
37 -93 0
37 -94 0
93 -93 0
94 -94 0
53 -99 0
53 -100 0
99 -99 0
100 -100 0
69 -105 0
69 -106 0
105 -105 0
106 -106 0
6 -81 0
6 -82 0
81 -81 0
82 -82 0
22 -87 0
22 -88 0
87 -87 0
88 -88 0
38 -93 0
38 -94 0
93 -93 0
94 -94 0
54 -99 0
54 -100 0
99 -99 0
100 -100 0
70 -105 0
70 -106 0
105 -105 0
106 -106 0
7 -113 -81 0
-7 113 -81 0
7 113 -82 0
-7 -113 -82 0
23 -113 -87 0
-23 113 -87 0
23 113 -88 0
-23 -113 -88 0
39 -113 -93 0
-39 113 -93 0
39 113 -94 0
-39 -113 -94 0
55 -113 -99 0
-55 113 -99 0
55 113 -100 0
-55 -113 -100 0
71 -113 -105 0
-71 113 -105 0
71 113 -106 0
-71 -113 -106 0
8 -81 0
8 -82 0
81 -81 0
82 -82 0
24 -87 0
24 -88 0
87 -87 0
88 -88 0
40 -93 0
40 -94 0
93 -93 0
94 -94 0
56 -99 0
56 -100 0
99 -99 0
100 -100 0
72 -105 0
72 -106 0
105 -105 0
106 -106 0
9 -81 0
9 -82 0
81 -81 0
82 -82 0
25 -87 0
25 -88 0
87 -87 0
88 -88 0
41 -93 0
41 -94 0
93 -93 0
94 -94 0
57 -99 0
57 -100 0
99 -99 0
100 -100 0
73 -105 0
73 -106 0
105 -105 0
106 -106 0
10 -114 -81 0
-10 114 -81 0
10 114 -82 0
-10 -114 -82 0
26 -114 -87 0
-26 114 -87 0
26 114 -88 0
-26 -114 -88 0
42 -114 -93 0
-42 114 -93 0
42 114 -94 0
-42 -114 -94 0
58 -114 -99 0
-58 114 -99 0
58 114 -100 0
-58 -114 -100 0
74 -114 -105 0
-74 114 -105 0
74 114 -106 0
-74 -114 -106 0
11 -81 0
11 -82 0
81 -81 0
82 -82 0
27 -87 0
27 -88 0
87 -87 0
88 -88 0
43 -93 0
43 -94 0
93 -93 0
94 -94 0
59 -99 0
59 -100 0
99 -99 0
100 -100 0
75 -105 0
75 -106 0
105 -105 0
106 -106 0
-12 -81 0
-12 -82 0
81 -81 0
82 -82 0
-28 -87 0
-28 -88 0
87 -87 0
88 -88 0
-44 -93 0
-44 -94 0
93 -93 0
94 -94 0
-60 -99 0
-60 -100 0
99 -99 0
100 -100 0
-76 -105 0
-76 -106 0
105 -105 0
106 -106 0
13 -115 -81 0
-13 115 -81 0
13 115 -82 0
-13 -115 -82 0
29 -115 -87 0
-29 115 -87 0
29 115 -88 0
-29 -115 -88 0
45 -115 -93 0
-45 115 -93 0
45 115 -94 0
-45 -115 -94 0
61 -115 -99 0
-61 115 -99 0
61 115 -100 0
-61 -115 -100 0
77 -115 -105 0
-77 115 -105 0
77 115 -106 0
-77 -115 -106 0
14 -116 -81 0
-14 116 -81 0
14 116 -82 0
-14 -116 -82 0
30 -116 -87 0
-30 116 -87 0
30 116 -88 0
-30 -116 -88 0
46 -116 -93 0
-46 116 -93 0
46 116 -94 0
-46 -116 -94 0
62 -116 -99 0
-62 116 -99 0
62 116 -100 0
-62 -116 -100 0
78 -116 -105 0
-78 116 -105 0
78 116 -106 0
-78 -116 -106 0
15 -81 0
15 -82 0
81 -81 0
82 -82 0
31 -87 0
31 -88 0
87 -87 0
88 -88 0
47 -93 0
47 -94 0
93 -93 0
94 -94 0
63 -99 0
63 -100 0
99 -99 0
100 -100 0
79 -105 0
79 -106 0
105 -105 0
106 -106 0
16 -81 0
16 -82 0
81 -81 0
82 -82 0
32 -87 0
32 -88 0
87 -87 0
88 -88 0
48 -93 0
48 -94 0
93 -93 0
94 -94 0
64 -99 0
64 -100 0
99 -99 0
100 -100 0
80 -105 0
80 -106 0
105 -105 0
106 -106 0
-159 81 0
159 -81 0
-160 82 0
159 -82 0
-159 -81 0
-160 -82 0
-165 81 159 0
165 -81 0
165 -159 0
-166 82 160 0
166 -82 0
166 -160 0
-165 -87 0
-166 -88 0
-171 87 165 0
171 -87 0
171 -165 0
-172 88 166 0
172 -88 0
172 -166 0
-171 -93 0
-172 -94 0
-177 93 171 0
177 -93 0
177 -171 0
-178 94 172 0
178 -94 0
178 -172 0
-177 -99 0
-178 -100 0
-183 99 177 0
183 -99 0
183 -177 0
-184 100 178 0
184 -100 0
184 -178 0
-183 -105 0
-184 -106 0
183 0
184 0
1 -83 0
1 -84 0
83 -83 0
84 -84 0
17 -89 0
17 -90 0
89 -89 0
90 -90 0
33 -95 0
33 -96 0
95 -95 0
96 -96 0
49 -101 0
49 -102 0
101 -101 0
102 -102 0
65 -107 0
65 -108 0
107 -107 0
108 -108 0
2 -117 -83 0
-2 117 -83 0
2 117 -84 0
-2 -117 -84 0
18 -117 -89 0
-18 117 -89 0
18 117 -90 0
-18 -117 -90 0
34 -117 -95 0
-34 117 -95 0
34 117 -96 0
-34 -117 -96 0
50 -117 -101 0
-50 117 -101 0
50 117 -102 0
-50 -117 -102 0
66 -117 -107 0
-66 117 -107 0
66 117 -108 0
-66 -117 -108 0
3 -83 0
3 -84 0
83 -83 0
84 -84 0
19 -89 0
19 -90 0
89 -89 0
90 -90 0
35 -95 0
35 -96 0
95 -95 0
96 -96 0
51 -101 0
51 -102 0
101 -101 0
102 -102 0
67 -107 0
67 -108 0
107 -107 0
108 -108 0
4 -118 -83 0
-4 118 -83 0
4 118 -84 0
-4 -118 -84 0
20 -118 -89 0
-20 118 -89 0
20 118 -90 0
-20 -118 -90 0
36 -118 -95 0
-36 118 -95 0
36 118 -96 0
-36 -118 -96 0
52 -118 -101 0
-52 118 -101 0
52 118 -102 0
-52 -118 -102 0
68 -118 -107 0
-68 118 -107 0
68 118 -108 0
-68 -118 -108 0
5 -83 0
5 -84 0
83 -83 0
84 -84 0
21 -89 0
21 -90 0
89 -89 0
90 -90 0
37 -95 0
37 -96 0
95 -95 0
96 -96 0
53 -101 0
53 -102 0
101 -101 0
102 -102 0
69 -107 0
69 -108 0
107 -107 0
108 -108 0
6 -83 0
6 -84 0
83 -83 0
84 -84 0
22 -89 0
22 -90 0
89 -89 0
90 -90 0
38 -95 0
38 -96 0
95 -95 0
96 -96 0
54 -101 0
54 -102 0
101 -101 0
102 -102 0
70 -107 0
70 -108 0
107 -107 0
108 -108 0
7 -119 -83 0
-7 119 -83 0
7 119 -84 0
-7 -119 -84 0
23 -119 -89 0
-23 119 -89 0
23 119 -90 0
-23 -119 -90 0
39 -119 -95 0
-39 119 -95 0
39 119 -96 0
-39 -119 -96 0
55 -119 -101 0
-55 119 -101 0
55 119 -102 0
-55 -119 -102 0
71 -119 -107 0
-71 119 -107 0
71 119 -108 0
-71 -119 -108 0
8 -83 0
8 -84 0
83 -83 0
84 -84 0
24 -89 0
24 -90 0
89 -89 0
90 -90 0
40 -95 0
40 -96 0
95 -95 0
96 -96 0
56 -101 0
56 -102 0
101 -101 0
102 -102 0
72 -107 0
72 -108 0
107 -107 0
108 -108 0
9 -83 0
9 -84 0
83 -83 0
84 -84 0
25 -89 0
25 -90 0
89 -89 0
90 -90 0
41 -95 0
41 -96 0
95 -95 0
96 -96 0
57 -101 0
57 -102 0
101 -101 0
102 -102 0
73 -107 0
73 -108 0
107 -107 0
108 -108 0
10 -120 -83 0
-10 120 -83 0
10 120 -84 0
-10 -120 -84 0
26 -120 -89 0
-26 120 -89 0
26 120 -90 0
-26 -120 -90 0
42 -120 -95 0
-42 120 -95 0
42 120 -96 0
-42 -120 -96 0
58 -120 -101 0
-58 120 -101 0
58 120 -102 0
-58 -120 -102 0
74 -120 -107 0
-74 120 -107 0
74 120 -108 0
-74 -120 -108 0
11 -83 0
11 -84 0
83 -83 0
84 -84 0
27 -89 0
27 -90 0
89 -89 0
90 -90 0
43 -95 0
43 -96 0
95 -95 0
96 -96 0
59 -101 0
59 -102 0
101 -101 0
102 -102 0
75 -107 0
75 -108 0
107 -107 0
108 -108 0
12 -121 -83 0
-12 121 -83 0
12 121 -84 0
-12 -121 -84 0
28 -121 -89 0
-28 121 -89 0
28 121 -90 0
-28 -121 -90 0
44 -121 -95 0
-44 121 -95 0
44 121 -96 0
-44 -121 -96 0
60 -121 -101 0
-60 121 -101 0
60 121 -102 0
-60 -121 -102 0
76 -121 -107 0
-76 121 -107 0
76 121 -108 0
-76 -121 -108 0
13 -122 -83 0
-13 122 -83 0
13 122 -84 0
-13 -122 -84 0
29 -122 -89 0
-29 122 -89 0
29 122 -90 0
-29 -122 -90 0
45 -122 -95 0
-45 122 -95 0
45 122 -96 0
-45 -122 -96 0
61 -122 -101 0
-61 122 -101 0
61 122 -102 0
-61 -122 -102 0
77 -122 -107 0
-77 122 -107 0
77 122 -108 0
-77 -122 -108 0
14 -83 0
14 -84 0
83 -83 0
84 -84 0
30 -89 0
30 -90 0
89 -89 0
90 -90 0
46 -95 0
46 -96 0
95 -95 0
96 -96 0
62 -101 0
62 -102 0
101 -101 0
102 -102 0
78 -107 0
78 -108 0
107 -107 0
108 -108 0
15 -83 0
15 -84 0
83 -83 0
84 -84 0
31 -89 0
31 -90 0
89 -89 0
90 -90 0
47 -95 0
47 -96 0
95 -95 0
96 -96 0
63 -101 0
63 -102 0
101 -101 0
102 -102 0
79 -107 0
79 -108 0
107 -107 0
108 -108 0
16 -83 0
16 -84 0
83 -83 0
84 -84 0
32 -89 0
32 -90 0
89 -89 0
90 -90 0
48 -95 0
48 -96 0
95 -95 0
96 -96 0
64 -101 0
64 -102 0
101 -101 0
102 -102 0
80 -107 0
80 -108 0
107 -107 0
108 -108 0
-161 83 0
161 -83 0
-162 84 0
161 -84 0
-161 -83 0
-162 -84 0
-167 83 161 0
167 -83 0
167 -161 0
-168 84 162 0
168 -84 0
168 -162 0
-167 -89 0
-168 -90 0
-173 89 167 0
173 -89 0
173 -167 0
-174 90 168 0
174 -90 0
174 -168 0
-173 -95 0
-174 -96 0
-179 95 173 0
179 -95 0
179 -173 0
-180 96 174 0
180 -96 0
180 -174 0
-179 -101 0
-180 -102 0
-185 101 179 0
185 -101 0
185 -179 0
-186 102 180 0
186 -102 0
186 -180 0
-185 -107 0
-186 -108 0
185 0
186 0
1 -85 0
1 -86 0
85 -85 0
86 -86 0
17 -91 0
17 -92 0
91 -91 0
92 -92 0
33 -97 0
33 -98 0
97 -97 0
98 -98 0
49 -103 0
49 -104 0
103 -103 0
104 -104 0
65 -109 0
65 -110 0
109 -109 0
110 -110 0
2 -123 -85 0
-2 123 -85 0
2 123 -86 0
-2 -123 -86 0
18 -123 -91 0
-18 123 -91 0
18 123 -92 0
-18 -123 -92 0
34 -123 -97 0
-34 123 -97 0
34 123 -98 0
-34 -123 -98 0
50 -123 -103 0
-50 123 -103 0
50 123 -104 0
-50 -123 -104 0
66 -123 -109 0
-66 123 -109 0
66 123 -110 0
-66 -123 -110 0
3 -124 -85 0
-3 124 -85 0
3 124 -86 0
-3 -124 -86 0
19 -124 -91 0
-19 124 -91 0
19 124 -92 0
-19 -124 -92 0
35 -124 -97 0
-35 124 -97 0
35 124 -98 0
-35 -124 -98 0
51 -124 -103 0
-51 124 -103 0
51 124 -104 0
-51 -124 -104 0
67 -124 -109 0
-67 124 -109 0
67 124 -110 0
-67 -124 -110 0
4 -125 -85 0
-4 125 -85 0
4 125 -86 0
-4 -125 -86 0
20 -125 -91 0
-20 125 -91 0
20 125 -92 0
-20 -125 -92 0
36 -125 -97 0
-36 125 -97 0
36 125 -98 0
-36 -125 -98 0
52 -125 -103 0
-52 125 -103 0
52 125 -104 0
-52 -125 -104 0
68 -125 -109 0
-68 125 -109 0
68 125 -110 0
-68 -125 -110 0
5 -85 0
5 -86 0
85 -85 0
86 -86 0
21 -91 0
21 -92 0
91 -91 0
92 -92 0
37 -97 0
37 -98 0
97 -97 0
98 -98 0
53 -103 0
53 -104 0
103 -103 0
104 -104 0
69 -109 0
69 -110 0
109 -109 0
110 -110 0
6 -85 0
6 -86 0
85 -85 0
86 -86 0
22 -91 0
22 -92 0
91 -91 0
92 -92 0
38 -97 0
38 -98 0
97 -97 0
98 -98 0
54 -103 0
54 -104 0
103 -103 0
104 -104 0
70 -109 0
70 -110 0
109 -109 0
110 -110 0
7 -85 0
7 -86 0
85 -85 0
86 -86 0
23 -91 0
23 -92 0
91 -91 0
92 -92 0
39 -97 0
39 -98 0
97 -97 0
98 -98 0
55 -103 0
55 -104 0
103 -103 0
104 -104 0
71 -109 0
71 -110 0
109 -109 0
110 -110 0
8 -85 0
8 -86 0
85 -85 0
86 -86 0
24 -91 0
24 -92 0
91 -91 0
92 -92 0
40 -97 0
40 -98 0
97 -97 0
98 -98 0
56 -103 0
56 -104 0
103 -103 0
104 -104 0
72 -109 0
72 -110 0
109 -109 0
110 -110 0
9 -126 -85 0
-9 126 -85 0
9 126 -86 0
-9 -126 -86 0
25 -126 -91 0
-25 126 -91 0
25 126 -92 0
-25 -126 -92 0
41 -126 -97 0
-41 126 -97 0
41 126 -98 0
-41 -126 -98 0
57 -126 -103 0
-57 126 -103 0
57 126 -104 0
-57 -126 -104 0
73 -126 -109 0
-73 126 -109 0
73 126 -110 0
-73 -126 -110 0
10 -127 -85 0
-10 127 -85 0
10 127 -86 0
-10 -127 -86 0
26 -127 -91 0
-26 127 -91 0
26 127 -92 0
-26 -127 -92 0
42 -127 -97 0
-42 127 -97 0
42 127 -98 0
-42 -127 -98 0
58 -127 -103 0
-58 127 -103 0
58 127 -104 0
-58 -127 -104 0
74 -127 -109 0
-74 127 -109 0
74 127 -110 0
-74 -127 -110 0
11 -85 0
11 -86 0
85 -85 0
86 -86 0
27 -91 0
27 -92 0
91 -91 0
92 -92 0
43 -97 0
43 -98 0
97 -97 0
98 -98 0
59 -103 0
59 -104 0
103 -103 0
104 -104 0
75 -109 0
75 -110 0
109 -109 0
110 -110 0
12 -128 -85 0
-12 128 -85 0
12 128 -86 0
-12 -128 -86 0
28 -128 -91 0
-28 128 -91 0
28 128 -92 0
-28 -128 -92 0
44 -128 -97 0
-44 128 -97 0
44 128 -98 0
-44 -128 -98 0
60 -128 -103 0
-60 128 -103 0
60 128 -104 0
-60 -128 -104 0
76 -128 -109 0
-76 128 -109 0
76 128 -110 0
-76 -128 -110 0
13 -129 -85 0
-13 129 -85 0
13 129 -86 0
-13 -129 -86 0
29 -129 -91 0
-29 129 -91 0
29 129 -92 0
-29 -129 -92 0
45 -129 -97 0
-45 129 -97 0
45 129 -98 0
-45 -129 -98 0
61 -129 -103 0
-61 129 -103 0
61 129 -104 0
-61 -129 -104 0
77 -129 -109 0
-77 129 -109 0
77 129 -110 0
-77 -129 -110 0
14 -130 -85 0
-14 130 -85 0
14 130 -86 0
-14 -130 -86 0
30 -130 -91 0
-30 130 -91 0
30 130 -92 0
-30 -130 -92 0
46 -130 -97 0
-46 130 -97 0
46 130 -98 0
-46 -130 -98 0
62 -130 -103 0
-62 130 -103 0
62 130 -104 0
-62 -130 -104 0
78 -130 -109 0
-78 130 -109 0
78 130 -110 0
-78 -130 -110 0
15 -85 0
15 -86 0
85 -85 0
86 -86 0
31 -91 0
31 -92 0
91 -91 0
92 -92 0
47 -97 0
47 -98 0
97 -97 0
98 -98 0
63 -103 0
63 -104 0
103 -103 0
104 -104 0
79 -109 0
79 -110 0
109 -109 0
110 -110 0
16 -131 -85 0
-16 131 -85 0
16 131 -86 0
-16 -131 -86 0
32 -131 -91 0
-32 131 -91 0
32 131 -92 0
-32 -131 -92 0
48 -131 -97 0
-48 131 -97 0
48 131 -98 0
-48 -131 -98 0
64 -131 -103 0
-64 131 -103 0
64 131 -104 0
-64 -131 -104 0
80 -131 -109 0
-80 131 -109 0
80 131 -110 0
-80 -131 -110 0
-163 85 0
163 -85 0
-164 86 0
163 -86 0
-163 -85 0
-164 -86 0
-169 85 163 0
169 -85 0
169 -163 0
-170 86 164 0
170 -86 0
170 -164 0
-169 -91 0
-170 -92 0
-175 91 169 0
175 -91 0
175 -169 0
-176 92 170 0
176 -92 0
176 -170 0
-175 -97 0
-176 -98 0
-181 97 175 0
181 -97 0
181 -175 0
-182 98 176 0
182 -98 0
182 -176 0
-181 -103 0
-182 -104 0
-187 103 181 0
187 -103 0
187 -181 0
-188 104 182 0
188 -104 0
188 -182 0
-187 -109 0
-188 -110 0
187 0
188 0
